Gurobi Optimizer version 9.1.2 build v9.1.2rc0 (linux64)
Thread count: 36 physical cores, 72 logical processors, using up to 32 threads
Optimize a model with 12 rows, 57 columns and 590 nonzeros
Model fingerprint: 0xf32eec78
Model has 47 quadratic constraints
Coefficient statistics:
  Matrix range     [2e-05, 3e+00]
  QMatrix range    [1e+00, 1e+00]
  QLMatrix range   [1e+00, 1e+00]
  Objective range  [8e-03, 7e-01]
  Bounds range     [1e+00, 1e+00]
  RHS range        [1e+00, 1e+00]
Presolve removed 9 rows and 0 columns

Continuous model is non-convex -- solving as a MIP.

Presolve removed 9 rows and 0 columns
Presolve time: 0.00s
Presolved: 189 rows, 57 columns, 443 nonzeros
Presolved model has 47 bilinear constraint(s)
Variable types: 57 continuous, 0 integer (0 binary)

Root relaxation: objective -1.743721e+00, 44 iterations, 0.00 seconds

    Nodes    |    Current Node    |     Objective Bounds      |     Work
 Expl Unexpl |  Obj  Depth IntInf | Incumbent    BestBd   Gap | It/Node Time

     0     0   -1.74372    0   38          -   -1.74372      -     -    0s
H    0     0                       0.6147548   -1.74372   384%     -    0s
     0     0   -1.64739    0    1    0.61475   -1.64739   368%     -    0s
H    0     0                      -1.6450460   -1.64739  0.14%     -    0s
     0     0     cutoff    0        -1.64505   -1.64505  0.00%     -    0s

Cutting planes:
  RLT: 25
  BQP: 3

Explored 1 nodes (76 simplex iterations) in 0.01 seconds
Thread count was 32 (of 72 available processors)

Solution count 2: -1.64505 0.614755 
No other solutions better than -1.64505

Optimal solution found (tolerance 1.00e-04)
Best objective -1.645045978473e+00, best bound -1.645045978473e+00, gap 0.0000%

User-callback calls 78, time in user-callback 0.00 sec
Gurobi Optimizer version 9.1.2 build v9.1.2rc0 (linux64)
Thread count: 36 physical cores, 72 logical processors, using up to 32 threads
Optimize a model with 12 rows, 55 columns and 570 nonzeros
Model fingerprint: 0x328e8f5f
Model has 45 quadratic constraints
Coefficient statistics:
  Matrix range     [1e-04, 1e+00]
  QMatrix range    [1e+00, 1e+00]
  QLMatrix range   [1e+00, 1e+00]
  Objective range  [1e-01, 1e+00]
  Bounds range     [1e+00, 1e+00]
  RHS range        [1e+00, 1e+00]
Presolve removed 9 rows and 0 columns

Continuous model is non-convex -- solving as a MIP.

Presolve removed 9 rows and 0 columns
Presolve time: 0.00s
Presolved: 183 rows, 55 columns, 432 nonzeros
Presolved model has 45 bilinear constraint(s)
Variable types: 55 continuous, 0 integer (0 binary)

Root relaxation: objective -6.776205e+00, 47 iterations, 0.00 seconds

    Nodes    |    Current Node    |     Objective Bounds      |     Work
 Expl Unexpl |  Obj  Depth IntInf | Incumbent    BestBd   Gap | It/Node Time

     0     0   -6.77621    0   10          -   -6.77621      -     -    0s
H    0     0                      -6.4587163   -6.77621  4.92%     -    0s
     0     0   -6.62338    0   32   -6.45872   -6.62338  2.55%     -    0s
H    0     0                      -6.6187606   -6.62338  0.07%     -    0s
     0     0   -6.62219    0    3   -6.61876   -6.62219  0.05%     -    0s
H    0     0                      -6.6203492   -6.62219  0.03%     -    0s
     0     0   -6.62206    0    3   -6.62035   -6.62206  0.03%     -    0s
H    0     0                      -6.6207615   -6.62206  0.02%     -    0s
H    0     0                      -6.6207795   -6.62206  0.02%     -    0s
H    0     0                      -6.6211372   -6.62206  0.01%     -    0s
     0     2   -6.62206    0    3   -6.62114   -6.62206  0.01%     -    0s

Cutting planes:
  RLT: 4

Explored 3 nodes (125 simplex iterations) in 0.05 seconds
Thread count was 32 (of 72 available processors)

Solution count 6: -6.62114 -6.62078 -6.62076 ... -6.45872

Optimal solution found (tolerance 1.00e-04)
Best objective -6.621137244157e+00, best bound -6.621361961121e+00, gap 0.0034%

User-callback calls 111, time in user-callback 0.00 sec



objective value: -6.621137244156754
objective bound: -6.621361961121322
x_opt: [1.0, 1.0, 0.9999999999999999, 0.08484739304667659, 0.0, 1.0, 0.18082017180840398, 1.0, 1.0, 1.0]
GUROBI solution time: 0.04587602615356445

